
Gurobi 9.0.3 (win64) logging started Sat Feb  5 17:52:58 2022

Changed value of parameter LogFile to logs\CRVRP_5-2-7-100_4_6.LOG
   Prev: logs\CRVRP_5-2-7-100_4_5.LOG  Default: 
Changed value of parameter Seed to 1662962275
   Prev: 184646291  Min: 0  Max: 2000000000  Default: 0
Parameter Threads unchanged
   Value: 2  Min: 0  Max: 1024  Default: 0
Parameter TimeLimit unchanged
   Value: 60.0  Min: 0.0  Max: inf  Default: inf
Parameter Symmetry unchanged
   Value: 2  Min: -1  Max: 2  Default: -1
Parameter Cuts unchanged
   Value: 2  Min: -1  Max: 3  Default: -1
Parameter PreDepRow unchanged
   Value: 1  Min: -1  Max: 1  Default: -1
Parameter ScaleFlag unchanged
   Value: 1  Min: -1  Max: 3  Default: -1
Parameter NormAdjust unchanged
   Value: 0  Min: -1  Max: 3  Default: -1
Gurobi Optimizer version 9.0.3 build v9.0.3rc0 (win64)
Optimize a model with 1001 rows, 810 columns and 4006 nonzeros
Model fingerprint: 0x10dd05f9
Variable types: 32 continuous, 778 integer (522 binary)
Coefficient statistics:
  Matrix range     [1e+00, 1e+06]
  Objective range  [1e+00, 1e+00]
  Bounds range     [1e+00, 1e+04]
  RHS range        [1e+00, 1e+06]
Presolve removed 616 rows and 515 columns
Presolve time: 0.02s
Presolved: 385 rows, 295 columns, 2069 nonzeros
Variable types: 15 continuous, 280 integer (230 binary)

Root relaxation: objective 3.372064e+02, 244 iterations, 0.01 seconds

    Nodes    |    Current Node    |     Objective Bounds      |     Work
 Expl Unexpl |  Obj  Depth IntInf | Incumbent    BestBd   Gap | It/Node Time

     0     0  337.20636    0   41          -  337.20636      -     -    0s
H    0     0                    1022.5968534  337.20636  67.0%     -    0s
     0     0  363.29547    0   58 1022.59685  363.29547  64.5%     -    0s
H    0     0                     973.4769936  363.29547  62.7%     -    0s
     0     0  363.29547    0   57  973.47699  363.29547  62.7%     -    0s
     0     0  373.45865    0   63  973.47699  373.45865  61.6%     -    0s
H    0     0                     854.2844113  373.45865  56.3%     -    0s
     0     0  382.37674    0   57  854.28441  382.37674  55.2%     -    0s
     0     0  382.50297    0   59  854.28441  382.50297  55.2%     -    0s
     0     0  382.50813    0   61  854.28441  382.50813  55.2%     -    0s
     0     0  385.42737    0   54  854.28441  385.42737  54.9%     -    0s
H    0     0                     823.8274045  385.42737  53.2%     -    0s
     0     0  385.42756    0   56  823.82740  385.42756  53.2%     -    0s
     0     0  390.49714    0   54  823.82740  390.49714  52.6%     -    0s
H    0     0                     747.8550338  390.49714  47.8%     -    0s
     0     0  390.56634    0   57  747.85503  390.56634  47.8%     -    0s
     0     0  390.56634    0   57  747.85503  390.56634  47.8%     -    0s
     0     0  390.59464    0   58  747.85503  390.59464  47.8%     -    0s
     0     0  390.59464    0   45  747.85503  390.59464  47.8%     -    0s
H    0     0                     636.6634002  390.59464  38.6%     -    0s
     0     2  390.59464    0   45  636.66340  390.59464  38.6%     -    0s
*   70    63              29     595.1110706  390.93197  34.3%  25.0    0s
*  204   124              36     579.9772256  401.80750  30.7%  24.8    0s
*  275   131              18     554.0173628  404.99522  26.9%  21.8    0s
H  277   115                     532.6920493  404.99522  24.0%  21.7    0s
*  942   226              14     526.0254857  449.29157  14.6%  16.3    1s
H 1027   202                     521.9920936  449.29157  13.9%  15.9    1s
* 1048   231              14     518.5685090  449.29157  13.4%  16.2    1s
H 1287   125                     483.9663032  449.29157  7.16%  15.3    1s
* 1333   125              13     478.6410340  449.29157  6.13%  15.4    1s
* 1969   114              15     477.5968534  473.96630  0.76%  14.6    2s
* 2047   114              17     473.9663032  473.96630  0.00%  14.2    2s

Cutting planes:
  Gomory: 10
  Cover: 4
  Implied bound: 45
  Projected implied bound: 2
  Clique: 6
  MIR: 38
  StrongCG: 2
  Flow cover: 151
  GUB cover: 1
  Inf proof: 1
  Zero half: 3
  RLT: 143
  Relax-and-lift: 107

Explored 2085 nodes (30323 simplex iterations) in 2.05 seconds
Thread count was 2 (of 8 available processors)

Solution count 10: 473.966 477.597 478.641 ... 579.977

Optimal solution found (tolerance 1.00e-04)
Best objective 4.739663032250e+02, best bound 4.739663032250e+02, gap 0.0000%
Discarded solution information
